
Welcome to IBM(R) ILOG(R) CPLEX(R) Interactive Optimizer 22.1.1.0
  with Simplex, Mixed Integer & Barrier Optimizers
5725-A06 5725-A29 5724-Y48 5724-Y49 5724-Y54 5724-Y55 5655-Y21
Copyright IBM Corp. 1988, 2022.  All Rights Reserved.

Type 'help' for a list of available commands.
Type 'help' followed by a command name for more
information on commands.

CPLEX> Selected objective sense:  MINIMIZE
Selected objective  name:  00000000
Selected RHS        name:  RHS1
Selected bound      name:  BOUND
Problem 'ee.mps' read.
Read time = 0.02 sec. (3.14 ticks)
CPLEX> New value for time limit in seconds: 7200
CPLEX> New value for parallel optimization mode: -1
CPLEX> New value for default parallel thread count: 40
CPLEX> New value for mixed integer optimality gap tolerance: 1e-13
CPLEX> Version identifier: 22.1.1.0 | 2022-11-28 | 9160aff4d
CPXPARAM_Threads                                 40
CPXPARAM_Parallel                                -1
CPXPARAM_TimeLimit                               7200
CPXPARAM_MIP_Tolerances_MIPGap                   1e-13
Found incumbent of value 0.000000 after 0.00 sec. (0.31 ticks)
Tried aggregator 2 times.
MIP Presolve eliminated 183 rows and 2745 columns.
MIP Presolve modified 5862 coefficients.
Aggregator did 713 substitutions.
Reduced MIP has 3624 rows, 7744 columns, and 28667 nonzeros.
Reduced MIP has 7744 binaries, 0 generals, 0 SOSs, and 0 indicators.
Presolve time = 0.07 sec. (68.81 ticks)
Probing time = 0.03 sec. (5.30 ticks)
Tried aggregator 1 time.
Detecting symmetries...
Reduced MIP has 3624 rows, 7744 columns, and 28667 nonzeros.
Reduced MIP has 7744 binaries, 0 generals, 0 SOSs, and 0 indicators.
Presolve time = 0.02 sec. (21.94 ticks)
Probing time = 0.02 sec. (5.09 ticks)
Clique table members: 18558.
MIP emphasis: balance optimality and feasibility.
MIP search method: dynamic search.
Parallel mode: opportunistic, using up to 40 threads.
Root relaxation solution time = 0.12 sec. (101.77 ticks)

        Nodes                                         Cuts/
   Node  Left     Objective  IInf  Best Integer    Best Bound    ItCnt     Gap

*     0+    0                            0.0000  -1.31000e+13              --- 
*     0+    0                      -3.19000e+12  -1.31000e+13           310.66%
*     0+    0                      -3.30000e+12  -1.31000e+13           296.97%
*     0+    0                      -4.40000e+12  -1.31000e+13           197.73%
*     0+    0                      -5.50000e+12  -1.31000e+13           138.18%
*     0+    0                      -6.60000e+12  -1.31000e+13            98.48%
      0     0  -1.30900e+13    88  -6.60000e+12  -1.30900e+13     2535   98.33%
*     0+    0                      -7.59000e+12  -1.30900e+13            72.46%
*     0+    0                      -1.30900e+13  -1.30900e+13             0.00%
      0     0  -1.30900e+13   174  -1.30900e+13      Cuts: 41     2990    0.00%
*     0+    0                      -1.30900e+13  -1.30900e+13             0.00%
      0     0  -1.30900e+13   184  -1.30900e+13      Cuts: 94     3573    0.00%
*     0+    0                      -1.30900e+13  -1.30900e+13             0.00%
*     0+    0                      -1.30900e+13  -1.30900e+13             0.00%
*     0+    0                      -1.30900e+13  -1.30900e+13             0.00%
      0     0  -1.00000e+75     0  -1.30900e+13  -1.30900e+13     3573    0.00%
      0     3    infeasible        -1.30900e+13  -1.30900e+13     6292    0.00%
Elapsed time = 2.55 sec. (1311.57 ticks, tree = 0.02 MB, solutions = 12)
    449    38  -1.30900e+13    90  -1.30900e+13  -1.30900e+13    78909    0.00%
   1121    28        cutoff        -1.30900e+13  -1.30900e+13    61203    0.00%
   2162    90  -1.30900e+13    49  -1.30900e+13  -1.30900e+13    85912    0.00%
   3271   188  -1.30900e+13   166  -1.30900e+13  -1.30900e+13   115454    0.00%
   4263   227        cutoff        -1.30900e+13  -1.30900e+13   211836    0.00%
   4772   203        cutoff        -1.30900e+13  -1.30900e+13   232374    0.00%
   5271   427        cutoff        -1.30900e+13  -1.30900e+13   180352    0.00%
   5646   127        cutoff        -1.30900e+13  -1.30900e+13   290672    0.00%
   6115    44        cutoff        -1.30900e+13  -1.30900e+13   324278    0.00%

GUB cover cuts applied:  4
Clique cuts applied:  7
Cover cuts applied:  434
Flow cuts applied:  1
Mixed integer rounding cuts applied:  5
Zero-half cuts applied:  20
Lift and project cuts applied:  10
Gomory fractional cuts applied:  17

Root node processing (before b&c):
  Real time             =    1.60 sec. (1310.40 ticks)
Parallel b&c, 40 threads:
  Real time             =    5.73 sec. (2949.57 ticks)
  Sync time (average)   =    2.08 sec.
  Wait time (average)   =    0.00 sec.
                          ------------
Total (root+branch&cut) =    7.33 sec. (4259.96 ticks)

Solution pool: 18 solutions saved.

MIP - Integer optimal solution:  Objective = -1.3089998490e+13
Solution time =    7.44 sec.  Iterations = 435322  Nodes = 6978
Deterministic time = 4260.00 ticks  (572.32 ticks/sec)

CPLEX> Solution 'p19' written to file 'ee.sol'.
CPLEX> 